\ENCODING=ISO-8859-1
\Problem name: 

Minimize
 obj: 0.703440270369618 x1 + 0.614639789254461 x2 + 0.0847774918617461 x3
      + 0.554518567782928 x4 + 0.619324250885357 x5 + 0.999465861301845 x6
      + 0.2502156776364 x7 + 0.347525469362595 x8 + 0.680653827827359 x9
      + 0.440771984990253 x10 + 0.497162249516316 x11 + 0.669477364648276 x12
      + 0.786472143314309 x13 + 0.497845098921515 x14 + 0.595889046833711 x15
      + 0.667556292267924 x16 + 0.394945666756481 x17 + 0.531067591372297 x18
      + 0.490532924271728 x19 + 0.843756188531101 x20 + 0.913684367000517 x21
      + 0.0950352277114147 x22 + 0.775508284597516 x23 + 0.635135930991975 x24
      + 0.677859466548817 x25 + 0.094687780862855 x26 + 0.998144727281002 x27
      + 0.0949740162741677 x28 + 0.0551904500815976 x29 + 0.129608297657216 x30
      + 0.875886950825471 x31 + 0.451565825631728 x32 + 0.995675331920123 x33
      + 0.780801293939298 x34 + 0.110418656710278 x35 + 0.733804060353631 x36
      + 0.207081042187898 x37 + 0.580042216334626 x38 + 0.708268950228685 x39
      + 0.685738125480914 x40 + 0.94921878053655 x41 + 0.83876674837041 x42
      + 0.0583285712926679 x43 + 0.269631039586036 x44 + 0.145551877023329 x45
      + 0.551849501978184 x46 + 0.152054112383823 x47 + 0.523549391624857 x48
      + 0.933595407621075 x49 + 0.728318612521543 x50 + 0.450040062167742 x51
      + 0.541857059293395 x52 + 0.18144916035246 x53 + 0.504701602062027 x54
      + 0.127245008661323 x55 + 0.460000580789137 x56 + 0.139253642702292 x57
      + 0.0351413499128101 x58 + 0.548208911182211 x59 + 0.705147027022151 x60
Subject To
 c1:   x2 + z2,2 + z2,26 <= 1
 c2:   - x2 - z2,2 - z2,26 <= -1
 c3:   x3 + z3,3 + z3,26 <= 1
 c4:   - x3 - z3,3 - z3,26 <= -1
 c5:   x4 + z4,4 + z4,26 <= 1
 c6:   - x4 - z4,4 - z4,26 <= -1
 c7:   x5 + z5,5 + z5,26 <= 1
 c8:   - x5 - z5,5 - z5,26 <= -1
 c9:   x7 + z7,1 + z7,2 <= 1
 c10:  - x7 - z7,1 - z7,2 <= -1
 c11:  x8 + z8,2 + z8,3 <= 1
 c12:  - x8 - z8,2 - z8,3 <= -1
 c13:  x9 + z9,3 + z9,4 <= 1
 c14:  - x9 - z9,3 - z9,4 <= -1
 c15:  x10 + z10,4 + z10,5 <= 1
 c16:  - x10 - z10,4 - z10,5 <= -1
 c17:  x11 + z11,5 + z11,26 <= 1
 c18:  - x11 - z11,5 - z11,26 <= -1
 c19:  x12 + z12,1 + z12,6 <= 1
 c20:  - x12 - z12,1 - z12,6 <= -1
 c21:  x13 + z13,2 + z13,7 <= 1
 c22:  - x13 - z13,2 - z13,7 <= -1
 c23:  x14 + z14,3 + z14,8 <= 1
 c24:  - x14 - z14,3 - z14,8 <= -1
 c25:  x15 + z15,4 + z15,9 <= 1
 c26:  - x15 - z15,4 - z15,9 <= -1
 c27:  x16 + z16,5 + z16,10 <= 1
 c28:  - x16 - z16,5 - z16,10 <= -1
 c29:  x17 + z17,6 + z17,26 <= 1
 c30:  - x17 - z17,6 - z17,26 <= -1
 c31:  x18 + z18,6 + z18,7 <= 1
 c32:  - x18 - z18,6 - z18,7 <= -1
 c33:  x19 + z19,7 + z19,8 <= 1
 c34:  - x19 - z19,7 - z19,8 <= -1
 c35:  x20 + z20,8 + z20,9 <= 1
 c36:  - x20 - z20,8 - z20,9 <= -1
 c37:  x21 + z21,9 + z21,10 <= 1
 c38:  - x21 - z21,9 - z21,10 <= -1
 c39:  x22 + z22,10 + z22,26 <= 1
 c40:  - x22 - z22,10 - z22,26 <= -1
 c41:  x23 + z23,6 + z23,11 <= 1
 c42:  - x23 - z23,6 - z23,11 <= -1
 c43:  x24 + z24,7 + z24,12 <= 1
 c44:  - x24 - z24,7 - z24,12 <= -1
 c45:  x25 + z25,8 + z25,13 <= 1
 c46:  - x25 - z25,8 - z25,13 <= -1
 c47:  x26 + z26,9 + z26,14 <= 1
 c48:  - x26 - z26,9 - z26,14 <= -1
 c49:  x27 + z27,10 + z27,15 <= 1
 c50:  - x27 - z27,10 - z27,15 <= -1
 c51:  x28 + z28,11 + z28,26 <= 1
 c52:  - x28 - z28,11 - z28,26 <= -1
 c53:  x29 + z29,11 + z29,12 <= 1
 c54:  - x29 - z29,11 - z29,12 <= -1
 c55:  x30 + z30,12 + z30,13 <= 1
 c56:  - x30 - z30,12 - z30,13 <= -1
 c57:  x31 + z31,13 + z31,14 <= 1
 c58:  - x31 - z31,13 - z31,14 <= -1
 c59:  x32 + z32,14 + z32,15 <= 1
 c60:  - x32 - z32,14 - z32,15 <= -1
 c61:  x33 + z33,15 + z33,26 <= 1
 c62:  - x33 - z33,15 - z33,26 <= -1
 c63:  x34 + z34,11 + z34,16 <= 1
 c64:  - x34 - z34,11 - z34,16 <= -1
 c65:  x35 + z35,12 + z35,17 <= 1
 c66:  - x35 - z35,12 - z35,17 <= -1
 c67:  x36 + z36,13 + z36,18 <= 1
 c68:  - x36 - z36,13 - z36,18 <= -1
 c69:  x37 + z37,14 + z37,19 <= 1
 c70:  - x37 - z37,14 - z37,19 <= -1
 c71:  x38 + z38,15 + z38,20 <= 1
 c72:  - x38 - z38,15 - z38,20 <= -1
 c73:  x39 + z39,16 + z39,26 <= 1
 c74:  - x39 - z39,16 - z39,26 <= -1
 c75:  x40 + z40,16 + z40,17 <= 1
 c76:  - x40 - z40,16 - z40,17 <= -1
 c77:  x41 + z41,17 + z41,18 <= 1
 c78:  - x41 - z41,17 - z41,18 <= -1
 c79:  x42 + z42,18 + z42,19 <= 1
 c80:  - x42 - z42,18 - z42,19 <= -1
 c81:  x43 + z43,19 + z43,20 <= 1
 c82:  - x43 - z43,19 - z43,20 <= -1
 c83:  x44 + z44,20 + z44,26 <= 1
 c84:  - x44 - z44,20 - z44,26 <= -1
 c85:  x45 + z45,16 + z45,21 <= 1
 c86:  - x45 - z45,16 - z45,21 <= -1
 c87:  x46 + z46,17 + z46,22 <= 1
 c88:  - x46 - z46,17 - z46,22 <= -1
 c89:  x47 + z47,18 + z47,23 <= 1
 c90:  - x47 - z47,18 - z47,23 <= -1
 c91:  x48 + z48,19 + z48,24 <= 1
 c92:  - x48 - z48,19 - z48,24 <= -1
 c93:  x49 + z49,20 + z49,25 <= 1
 c94:  - x49 - z49,20 - z49,25 <= -1
 c95:  x50 + z50,21 + z50,26 <= 1
 c96:  - x50 - z50,21 - z50,26 <= -1
 c97:  x51 + z51,21 + z51,22 <= 1
 c98:  - x51 - z51,21 - z51,22 <= -1
 c99:  x52 + z52,22 + z52,23 <= 1
 c100: - x52 - z52,22 - z52,23 <= -1
 c101: x53 + z53,23 + z53,24 <= 1
 c102: - x53 - z53,23 - z53,24 <= -1
 c103: x54 + z54,24 + z54,25 <= 1
 c104: - x54 - z54,24 - z54,25 <= -1
 c105: x55 + z55,25 + z55,26 <= 1
 c106: - x55 - z55,25 - z55,26 <= -1
 c107: x56 + z56,21 + z56,26 <= 1
 c108: - x56 - z56,21 - z56,26 <= -1
 c109: x57 + z57,22 + z57,26 <= 1
 c110: - x57 - z57,22 - z57,26 <= -1
 c111: x58 + z58,23 + z58,26 <= 1
 c112: - x58 - z58,23 - z58,26 <= -1
 c113: x59 + z59,24 + z59,26 <= 1
 c114: - x59 - z59,24 - z59,26 <= -1
 c115: x60 + z60,25 + z60,26 <= 1
 c116: - x60 - z60,25 - z60,26 <= -1
 c117: z2,2 + z7,2 + z8,2 + z13,2 <= 1
 c118: - z2,2 - z7,2 - z8,2 - z13,2 <= -1
 c119: z3,3 + z8,3 + z9,3 + z14,3 <= 1
 c120: - z3,3 - z8,3 - z9,3 - z14,3 <= -1
 c121: z4,4 + z9,4 + z10,4 + z15,4 <= 1
 c122: - z4,4 - z9,4 - z10,4 - z15,4 <= -1
 c123: z5,5 + z10,5 + z11,5 + z16,5 <= 1
 c124: - z5,5 - z10,5 - z11,5 - z16,5 <= -1
 c125: z12,6 + z17,6 + z18,6 + z23,6 <= 1
 c126: - z12,6 - z17,6 - z18,6 - z23,6 <= -1
 c127: z13,7 + z18,7 + z19,7 + z24,7 <= 1
 c128: - z13,7 - z18,7 - z19,7 - z24,7 <= -1
 c129: z14,8 + z19,8 + z20,8 + z25,8 <= 1
 c130: - z14,8 - z19,8 - z20,8 - z25,8 <= -1
 c131: z15,9 + z20,9 + z21,9 + z26,9 <= 1
 c132: - z15,9 - z20,9 - z21,9 - z26,9 <= -1
 c133: z16,10 + z21,10 + z22,10 + z27,10 <= 1
 c134: - z16,10 - z21,10 - z22,10 - z27,10 <= -1
 c135: z23,11 + z28,11 + z29,11 + z34,11 <= 1
 c136: - z23,11 - z28,11 - z29,11 - z34,11 <= -1
 c137: z24,12 + z29,12 + z30,12 + z35,12 <= 1
 c138: - z24,12 - z29,12 - z30,12 - z35,12 <= -1
 c139: z25,13 + z30,13 + z31,13 + z36,13 <= 1
 c140: - z25,13 - z30,13 - z31,13 - z36,13 <= -1
 c141: z26,14 + z31,14 + z32,14 + z37,14 <= 1
 c142: - z26,14 - z31,14 - z32,14 - z37,14 <= -1
 c143: z27,15 + z32,15 + z33,15 + z38,15 <= 1
 c144: - z27,15 - z32,15 - z33,15 - z38,15 <= -1
 c145: z34,16 + z39,16 + z40,16 + z45,16 <= 1
 c146: - z34,16 - z39,16 - z40,16 - z45,16 <= -1
 c147: z35,17 + z40,17 + z41,17 + z46,17 <= 1
 c148: - z35,17 - z40,17 - z41,17 - z46,17 <= -1
 c149: z36,18 + z41,18 + z42,18 + z47,18 <= 1
 c150: - z36,18 - z41,18 - z42,18 - z47,18 <= -1
 c151: z37,19 + z42,19 + z43,19 + z48,19 <= 1
 c152: - z37,19 - z42,19 - z43,19 - z48,19 <= -1
 c153: z38,20 + z43,20 + z44,20 + z49,20 <= 1
 c154: - z38,20 - z43,20 - z44,20 - z49,20 <= -1
 c155: z45,21 + z50,21 + z51,21 + z56,21 <= 1
 c156: - z45,21 - z50,21 - z51,21 - z56,21 <= -1
 c157: z46,22 + z51,22 + z52,22 + z57,22 <= 1
 c158: - z46,22 - z51,22 - z52,22 - z57,22 <= -1
 c159: z47,23 + z52,23 + z53,23 + z58,23 <= 1
 c160: - z47,23 - z52,23 - z53,23 - z58,23 <= -1
 c161: z48,24 + z53,24 + z54,24 + z59,24 <= 1
 c162: - z48,24 - z53,24 - z54,24 - z59,24 <= -1
 c163: z49,25 + z54,25 + z55,25 + z60,25 <= 1
 c164: - z49,25 - z54,25 - z55,25 - z60,25 <= -1
 c165: x1 + x6 <= 2
 c166: - x1 - x6 <= -2
 c167: x1 + x2 + x7 <= 2
 c168: - x1 - x2 - x7 <= -2
 c169: x2 + x3 + x8 <= 2
 c170: - x2 - x3 - x8 <= -2
 c171: x3 + x4 + x9 <= 2
 c172: - x3 - x4 - x9 <= -2
 c173: x4 + x5 + x10 <= 2
 c174: - x4 - x5 - x10 <= -2
 c175: x5 + x11 <= 2
 c176: - x5 - x11 <= -2
 c177: x6 + x12 + x17 <= 2
 c178: - x6 - x12 - x17 <= -2
 c179: x7 + x12 + x13 + x18 <= 2
 c180: - x7 - x12 - x13 - x18 <= -2
 c181: x8 + x13 + x14 + x19 <= 2
 c182: - x8 - x13 - x14 - x19 <= -2
 c183: x9 + x14 + x15 + x20 <= 2
 c184: - x9 - x14 - x15 - x20 <= -2
 c185: x10 + x15 + x16 + x21 <= 2
 c186: - x10 - x15 - x16 - x21 <= -2
 c187: x11 + x16 + x22 <= 2
 c188: - x11 - x16 - x22 <= -2
 c189: x17 + x23 + x28 <= 2
 c190: - x17 - x23 - x28 <= -2
 c191: x18 + x23 + x24 + x29 <= 2
 c192: - x18 - x23 - x24 - x29 <= -2
 c193: x19 + x24 + x25 + x30 <= 2
 c194: - x19 - x24 - x25 - x30 <= -2
 c195: x20 + x25 + x26 + x31 <= 2
 c196: - x20 - x25 - x26 - x31 <= -2
 c197: x21 + x26 + x27 + x32 <= 2
 c198: - x21 - x26 - x27 - x32 <= -2
 c199: x22 + x27 + x33 <= 2
 c200: - x22 - x27 - x33 <= -2
 c201: x28 + x34 + x39 <= 2
 c202: - x28 - x34 - x39 <= -2
 c203: x29 + x34 + x35 + x40 <= 2
 c204: - x29 - x34 - x35 - x40 <= -2
 c205: x30 + x35 + x36 + x41 <= 2
 c206: - x30 - x35 - x36 - x41 <= -2
 c207: x31 + x36 + x37 + x42 <= 2
 c208: - x31 - x36 - x37 - x42 <= -2
 c209: x32 + x37 + x38 + x43 <= 2
 c210: - x32 - x37 - x38 - x43 <= -2
 c211: x33 + x38 + x44 <= 2
 c212: - x33 - x38 - x44 <= -2
 c213: x39 + x45 + x50 <= 2
 c214: - x39 - x45 - x50 <= -2
 c215: x40 + x45 + x46 + x51 <= 2
 c216: - x40 - x45 - x46 - x51 <= -2
 c217: x41 + x46 + x47 + x52 <= 2
 c218: - x41 - x46 - x47 - x52 <= -2
 c219: x42 + x47 + x48 + x53 <= 2
 c220: - x42 - x47 - x48 - x53 <= -2
 c221: x43 + x48 + x49 + x54 <= 2
 c222: - x43 - x48 - x49 - x54 <= -2
 c223: x44 + x49 + x55 <= 2
 c224: - x44 - x49 - x55 <= -2
 c225: x50 + x56 <= 2
 c226: - x50 - x56 <= -2
 c227: x51 + x56 + x57 <= 2
 c228: - x51 - x56 - x57 <= -2
 c229: x52 + x57 + x58 <= 2
 c230: - x52 - x57 - x58 <= -2
 c231: x53 + x58 + x59 <= 2
 c232: - x53 - x58 - x59 <= -2
 c233: x54 + x59 + x60 <= 2
 c234: - x54 - x59 - x60 <= -2
 c235: x55 + x60 <= 2
 c236: - x55 - x60 <= -2
 c237: x3 + 2 x4 + 2 x5 + x6 + x7 + 2 x8 + x9 + x10 + 2 x11 + x13 + 2 x14
       + 2 x15 + x16 + 2 x17 + 2 x18 + x19 + 2 x20 + x21 + x22 + x23 + 2 x24
       + 2 x25 + 2 x26 + 2 x27 + 2 x28 + 2 x29 + 2 x30 + x31 + 2 x32 + 2 x33
       + 2 x34 + 2 x35 + 2 x36 + 2 x37 + 2 x38 + 2 x39 + 2 x40 + 2 x41 + 2 x42
       + 2 x43 + 2 x44 + 2 x45 + 2 x46 + x47 + 2 x48 + 2 x49 + 2 x50 + 2 x51
       + 2 x52 + 2 x53 + 2 x54 + 2 x55 + 2 x56 + 2 x57 + 2 x58 + 2 x59 + x60
       - z2,2 - z2,26 - 2 z3,3 - z3,26 + z4,4 - z5,5 - z8,2 - z8,3 - z9,3
       + z10,4 - z10,5 - z11,5 - z12,1 - z12,6 - z13,2 - z13,7 - z14,3 + z14,8
       + z15,4 - z16,5 - z18,7 - z19,7 + z19,8 + z20,8 + z20,9 - z21,9 - z21,10
       - z22,10 - z22,26 + z23,11 - z24,7 + z25,8 + z26,14 + z27,10 + z27,15
       + z28,11 + z29,11 - z30,13 - z31,13 + z31,14 + z32,14 + z32,15 + z33,15
       + z34,11 + z37,14 + z38,15 + z38,20 + z41,18 + z42,18 + z42,19 + z43,20
       + z44,20 + z45,21 + z46,22 - z47,18 - z47,23 + z49,20 + z50,21 + z51,21
       + z51,22 + z52,22 + z56,21 + z57,22 - z60,25 - z60,26 <= 69
 c238: x1 + x2 + x3 + 2 x4 + 2 x5 + x6 + 2 x7 + x8 + 2 x9 + 2 x10 + 2 x11 + x12
       + x13 + 2 x14 + 2 x15 + x16 + 2 x18 + 2 x19 + x20 + 2 x21 + x22 + 2 x23
       + x24 + 2 x25 + 2 x26 + 2 x27 + 2 x28 + 2 x29 + 2 x30 + 2 x31 + 2 x32
       + x33 + 2 x34 + x35 + 2 x36 + 2 x37 + 2 x38 + 2 x39 + 2 x40 + 2 x41
       + x42 + x43 + 2 x44 + 2 x45 + 2 x46 + 2 x47 + 2 x48 + 2 x50 + 2 x51
       + x52 + 2 x53 + 2 x54 + 2 x55 + 2 x56 + 2 x57 + 2 x58 + x59 + x60 + z2,2
       - z3,3 - z3,26 + z4,4 + z7,2 - z8,3 + z9,4 + z10,4 + z12,6 + z14,8
       + z15,4 + z15,9 - z17,26 + z18,6 + z19,8 + z20,9 + z21,9 + z21,10
       - z22,10 - z22,26 + z23,6 + z23,11 - z24,7 - z24,12 + z25,8 + z26,9
       + z26,14 + z27,10 + z27,15 - z30,13 + z31,14 + z32,14 + z32,15 - z33,15
       - z33,26 - z35,12 - z35,17 + z37,14 + z38,15 + z38,20 + z41,18 + z45,21
       + z46,22 + z48,24 - z49,20 - z49,25 + z50,21 + z51,21 + z51,22 - z52,23
       + z53,23 + z53,24 + z54,24 + z54,25 + z56,21 + z57,22 + z58,23 - z59,26
       - z60,25 - z60,26 <= 71
 c239: x3 + x4 + x5 + x6 + x7 + 2 x8 + 2 x9 + x10 + 2 x11 + x12 + 2 x14 + x15
       + x16 + 2 x17 + x18 + 2 x19 + 2 x20 + x21 + x22 + x24 + 2 x25 + 2 x26
       + 2 x27 + 2 x28 - x29 + 2 x30 + 2 x31 + 2 x32 + 2 x33 + x36 + 2 x37
       + 2 x38 + x39 - x40 - x42 + 2 x43 + 2 x44 + 2 x45 + 2 x46 + 2 x47
       + 2 x48 + 2 x49 + x50 + 2 x51 + 2 x52 + 2 x53 + 2 x54 + 2 x55 + 2 x56
       + 2 x57 + 2 x58 + 2 x59 + x60 - z2,2 - z2,26 - z3,3 - z3,26 - z4,26
       - z5,5 - z5,26 - z8,2 + z9,3 + z9,4 + z10,4 + z10,5 - z12,1 - z12,6
       - 2 z13,2 - z13,7 + z14,3 + z14,8 + z15,4 + z15,9 + z16,5 + z16,10
       - z18,6 + z19,8 + z20,9 + z21,9 - z22,10 - z22,26 - z23,6 - z23,11
       + z25,8 + z25,13 + z27,10 + z27,15 - z28,11 - z29,11 - z29,12 + z30,13
       + z31,13 + z31,14 + z32,14 + z32,15 - 2 z34,11 - z35,12 + z36,13
       - z36,18 + z37,14 + z38,15 + z38,20 - z39,26 - z40,16 - z40,17 - z41,17
       - z41,18 - 2 z42,18 - z42,19 + z43,20 + z45,16 + z45,21 + z47,23
       + z48,24 + z49,20 - z50,21 - z50,26 + z51,21 + z51,22 + z52,22 + z52,23
       + z53,23 + z53,24 - z55,25 + z57,22 + z59,24 - z60,25 - z60,26 <= 59
 c240: 2 x3 + 2 x4 + 2 x5 + x7 + x8 + 2 x9 + x10 + 2 x11 + x12 + 2 x13 + 2 x14
       + x15 + x16 + 2 x17 + 2 x18 + x19 + x20 + 2 x22 + 2 x24 - 2 x26 + x27
       + 2 x28 + 2 x29 + x32 + 2 x33 + 2 x34 + x36 + x37 + x38 + 2 x39 + 2 x40
       + x42 + x43 + 2 x44 + 2 x45 + 2 x46 + x47 + 2 x48 + 2 x49 + x50 + 2 x51
       + x52 + 2 x54 + 2 x55 + 2 x56 + 2 x57 + x58 - z2,2 - z2,26 - z3,3 + z4,4
       - z7,1 - z7,2 - z8,2 - 2 z8,3 + z10,4 + z10,5 - z12,1 - z12,6 + z13,7
       + z14,8 + z15,4 - z15,9 + z16,5 + z16,10 - z18,6 + z18,7 + z19,8 + z20,8
       - 2 z23,6 - z23,11 + z24,7 + z24,12 - z25,13 - 2 z26,9 - 2 z26,14
       + z27,10 + z27,15 + z29,12 - 2 z30,13 - z31,13 - z31,14 + z32,15
       - z35,17 + z36,18 - z37,14 - z38,20 - z39,16 - z40,16 + z41,18 + z42,18
       + z42,19 - z43,19 - 2 z43,20 - z44,20 - z45,16 + z45,21 + z46,22
       + z47,23 + z48,19 + z49,25 - z50,26 + z51,21 + z51,22 + z52,22 + z52,23
       - 2 z53,24 + z54,25 + z56,21 + z57,22 + z58,23 - z59,24 - z59,26
       - z60,25 - z60,26 <= 50
End
